c colouring generated by benchmark framework
p edge 261 430
v 1 2
v 2 3
v 3 2
v 4 0
v 5 3
v 6 3
v 7 0
v 8 2
v 9 0
v 10 2
v 11 0
v 12 0
v 13 1
v 14 1
v 15 1
v 16 0
v 17 1
v 18 1
v 19 2
v 20 1
v 21 1
v 22 2
v 23 1
v 24 3
v 25 0
v 26 2
v 27 0
v 28 0
v 29 2
v 30 1
v 31 0
v 32 0
v 33 1
v 34 1
v 35 0
v 36 0
v 37 0
v 38 2
v 39 2
v 40 2
v 41 2
v 42 3
v 43 3
v 44 3
v 45 1
v 46 0
v 47 0
v 48 3
v 49 1
v 50 2
v 51 0
v 52 1
v 53 3
v 54 0
v 55 0
v 56 1
v 57 0
v 58 2
v 59 3
v 60 0
v 61 2
v 62 2
v 63 2
v 64 1
v 65 0
v 66 2
v 67 0
v 68 2
v 69 2
v 70 1
v 71 1
v 72 3
v 73 1
v 74 3
v 75 2
v 76 2
v 77 0
v 78 2
v 79 1
v 80 3
v 81 2
v 82 3
v 83 0
v 84 2
v 85 2
v 86 3
v 87 1
v 88 1
v 89 2
v 90 1
v 91 0
v 92 1
v 93 1
v 94 2
v 95 2
v 96 0
v 97 2
v 98 2
v 99 1
v 100 3
v 101 1
v 102 2
v 103 3
v 104 2
v 105 1
v 106 3
v 107 3
v 108 1
v 109 1
v 110 0
v 111 3
v 112 2
v 113 0
v 114 1
v 115 3
v 116 2
v 117 0
v 118 1
v 119 0
v 120 1
v 121 0
v 122 2
v 123 2
v 124 0
v 125 0
v 126 0
v 127 1
v 128 1
v 129 1
v 130 0
v 131 1
v 132 2
v 133 1
v 134 2
v 135 0
v 136 2
v 137 3
v 138 1
v 139 2
v 140 1
v 141 1
v 142 1
v 143 3
v 144 0
v 145 2
v 146 0
v 147 0
v 148 3
v 149 2
v 150 0
v 151 1
v 152 2
v 153 1
v 154 2
v 155 0
v 156 1
v 157 0
v 158 1
v 159 1
v 160 3
v 161 0
v 162 2
v 163 3
v 164 2
v 165 2
v 166 0
v 167 3
v 168 2
v 169 1
v 170 2
v 171 2
v 172 2
v 173 3
v 174 1
v 175 3
v 176 3
v 177 2
v 178 3
v 179 2
v 180 0
v 181 2
v 182 0
v 183 0
v 184 1
v 185 2
v 186 1
v 187 0
v 188 2
v 189 3
v 190 1
v 191 3
v 192 1
v 193 0
v 194 2
v 195 0
v 196 3
v 197 3
v 198 3
v 199 2
v 200 0
v 201 3
v 202 0
v 203 1
v 204 0
v 205 2
v 206 3
v 207 0
v 208 2
v 209 3
v 210 0
v 211 1
v 212 0
v 213 0
v 214 3
v 215 2
v 216 0
v 217 1
v 218 2
v 219 2
v 220 1
v 221 0
v 222 3
v 223 0
v 224 1
v 225 3
v 226 2
v 227 0
v 228 3
v 229 3
v 230 0
v 231 2
v 232 1
v 233 3
v 234 1
v 235 1
v 236 2
v 237 1
v 238 2
v 239 3
v 240 1
v 241 2
v 242 3
v 243 2
v 244 3
v 245 0
v 246 0
v 247 2
v 248 3
v 249 1
v 250 2
v 251 2
v 252 0
v 253 0
v 254 2
v 255 3
v 256 0
v 257 3
v 258 1
v 259 0
v 260 0
v 261 2
